Problem:    
Rows:       260
Columns:    89 (72 integer, 72 binary)
Non-zeros:  974
Status:     INTEGER OPTIMAL
Objective:  value = 147.922313 (MINimum)

   No.   Row name        Activity     Lower bound   Upper bound
------ ------------    ------------- ------------- -------------
     1 r.5                   147.922             0               
     2 r.6                   52.0445      -932.262               
     3 r.7                   1147.92             0               
     4 r.8                  -953.172      -961.797               
     5 r.9                   147.922             0               
     6 r.10                  106.435      -931.912               
     7 r.11                  1147.92             0               
     8 r.12                 -893.565      -961.255               
     9 r.13                  1147.92             0               
    10 r.14                 -953.401      -995.422               
    11 r.15                  147.922             0               
    12 r.16                  51.8163      -994.996               
    13 r.17                  147.922             0               
    14 r.18                  106.435      -991.961               
    15 r.19                  1147.92             0               
    16 r.20                  -932.31      -992.204               
    17 r.21                  1147.92             0               
    18 r.22                 -957.978        -968.6               
    19 r.23                  147.922             0               
    20 r.24                   49.322      -981.029               
    21 r.25                  147.922             0               
    22 r.26                  14.0697       -997.88               
    23 r.27                  1147.92             0               
    24 r.28                 -996.364      -996.364               
    25 r.29                  147.922             0               
    26 r.30                  147.922      -899.802               
    27 r.31                  1147.92             0               
    28 r.32                 -852.078      -958.513               
    29 r.33                  1147.92             0               
    30 r.34                 -852.078        -901.4               
    31 r.35                  147.922             0               
    32 r.36                  147.922      -959.675               
    33 r.37                        1             1             = 
    34 r.38                        1             1             = 
    35 r.39                        1             1             = 
    36 r.40                        1             1             = 
    37 r.41                        1             1             = 
    38 r.42                        1             1             = 
    39 r.43                        1             1             = 
    40 r.44                        1             1             = 
    41 r.45                     1000             2               
    42 r.46                    -1000         -1001               
    43 r.47                  2057.11      -931.912               
    44 r.48                        2             2               
    45 r.49                       -2         -1001               
    46 r.50                 -942.887      -961.255               
    47 r.51                     1001             2               
    48 r.52                    -1001         -1001               
    49 r.53                  1997.28      -995.422               
    50 r.54                     1001             2               
    51 r.55                    -1001         -1001               
    52 r.56                  2002.49      -994.996               
    53 r.57                     1000             2               
    54 r.58                    -1000         -1001               
    55 r.59                  2057.11      -991.961               
    56 r.60                        2             2               
    57 r.61                       -2         -1001               
    58 r.62                 -981.632      -992.204               
    59 r.63                     1001             2               
    60 r.64                    -1001         -1001               
    61 r.65                   1992.7        -968.6               
    62 r.66                     1001             2               
    63 r.67                    -1001         -1001               
    64 r.68                     2000      -981.029               
    65 r.69                  43.4199      -932.262               
    66 r.70                 -961.797      -961.797               
    67 r.71                  43.4199      -932.262               
    68 r.72                 -961.797      -961.797               
    69 r.73                  98.6003      -899.802               
    70 r.74                   -901.4      -958.513               
    71 r.75                  98.6003      -899.802               
    72 r.76                   -901.4      -958.513               
    73 r.77                   -901.4        -901.4               
    74 r.78                  98.6003      -959.675               
    75 r.79                   -901.4        -901.4               
    76 r.80                  98.6003      -959.675               
    77 r.81                     1000             2               
    78 r.82                    -1000         -1001               
    79 r.83                  1945.61       67.7381               
    80 r.84                        2             2               
    81 r.85                       -2         -1001               
    82 r.86                  940.393       38.2031               
    83 r.87                     1001             2               
    84 r.88                    -1001         -1001               
    85 r.89                  1940.16      -995.422               
    86 r.90                     1001             2               
    87 r.91                    -1001         -1001               
    88 r.92                  1945.38      -994.996               
    89 r.93                     1000             2               
    90 r.94                    -1000         -1001               
    91 r.95                     2000      -991.961               
    92 r.96                        2             2               
    93 r.97                       -2         -1001               
    94 r.98                 -38.7447      -992.204               
    95 r.99                     1001             2               
    96 r.100                   -1001         -1001               
    97 r.101                 1935.59        -968.6               
    98 r.102                    1001             2               
    99 r.103                   -1001         -1001               
   100 r.104                 1942.89      -981.029               
   101 r.105                 97.8104      -931.912               
   102 r.106                 -902.19      -961.255               
   103 r.107                 97.8104      -931.912               
   104 r.108                 -902.19      -961.255               
   105 r.109                 41.4872      -899.802               
   106 r.110                -958.513      -958.513               
   107 r.111                 41.4872      -899.802               
   108 r.112                -958.513      -958.513               
   109 r.113                    1001             2               
   110 r.114                   -1001         -1001               
   111 r.115                 2041.49        -901.4               
   112 r.116                    1001             2               
   113 r.117                   -1001         -1001               
   114 r.118                 2041.49      -959.675               
   115 r.119                    1001             2               
   116 r.120                   -1001         -1001               
   117 r.121                 2002.72       67.7381               
   118 r.122                    1001             2               
   119 r.123                   -1001         -1001               
   120 r.124                 1997.51       38.2031               
   121 r.125                    1001             2               
   122 r.126                   -1001         -1001               
   123 r.127                 2057.11       68.0877               
   124 r.128                    1001             2               
   125 r.129                   -1001         -1001               
   126 r.130                 2057.11       38.7447               
   127 r.131                    1001             2               
   128 r.132                   -1001         -1001               
   129 r.133                 2057.11      -991.961               
   130 r.134                    1001             2               
   131 r.135                   -1001         -1001               
   132 r.136                 2018.37      -992.204               
   133 r.137                       2             2               
   134 r.138                      -2         -1001               
   135 r.139                -7.30035        -968.6               
   136 r.140                    1000             2               
   137 r.141                   -1000         -1001               
   138 r.142                    2000      -981.029               
   139 r.143                -962.025      -995.422               
   140 r.144                 43.1916      -994.996               
   141 r.145                -962.025      -995.422               
   142 r.146                 43.1916      -994.996               
   143 r.147                 98.6003      -899.802               
   144 r.148                  -901.4      -958.513               
   145 r.149                 98.6003      -899.802               
   146 r.150                  -901.4      -958.513               
   147 r.151                  -901.4        -901.4               
   148 r.152                 98.6003      -959.675               
   149 r.153                  -901.4        -901.4               
   150 r.154                 98.6003      -959.675               
   151 r.155                    1000             2               
   152 r.156                   -1000         -1001               
   153 r.157                 1945.61       67.7381               
   154 r.158                       2             2               
   155 r.159                      -2         -1001               
   156 r.160                 979.137       38.2031               
   157 r.161                    1000             2               
   158 r.162                   -1000         -1001               
   159 r.163                    2000       68.0877               
   160 r.164                       2             2               
   161 r.165                      -2         -1001               
   162 r.166                 38.7447       38.7447               
   163 r.167                    1001             2               
   164 r.168                   -1001         -1001               
   165 r.169                 1940.16       4.57782               
   166 r.170                    1001             2               
   167 r.171                   -1001         -1001               
   168 r.172                 1984.13       5.00392               
   169 r.173                    1001             2               
   170 r.174                   -1001         -1001               
   171 r.175                 1935.59        -968.6               
   172 r.176                    1001             2               
   173 r.177                   -1001         -1001               
   174 r.178                 1981.63      -981.029               
   175 r.179                 97.8104      -991.961               
   176 r.180                -940.934      -992.204               
   177 r.181                 97.8104      -991.961               
   178 r.182                -940.934      -992.204               
   179 r.183                 41.4872      -899.802               
   180 r.184                -958.513      -958.513               
   181 r.185                 80.2319      -899.802               
   182 r.186                -919.768      -958.513               
   183 r.187                    1001             2               
   184 r.188                   -1001         -1001               
   185 r.189                 2041.49        -901.4               
   186 r.190                    1001             2               
   187 r.191                   -1001         -1001               
   188 r.192                 2080.23      -959.675               
   189 r.193                    1001             2               
   190 r.194                   -1001         -1001               
   191 r.195                 2010.02       67.7381               
   192 r.196                    1001             2               
   193 r.197                   -1001         -1001               
   194 r.198                 1997.51       38.2031               
   195 r.199                    1001             2               
   196 r.200                   -1001         -1001               
   197 r.201                 2064.41       68.0877               
   198 r.202                    1001             2               
   199 r.203                   -1001         -1001               
   200 r.204                 2057.11       38.7447               
   201 r.205                       2             2               
   202 r.206                      -2         -1001               
   203 r.207                 4.57782       4.57782               
   204 r.208                    1000             2               
   205 r.209                   -1000         -1001               
   206 r.210                 2002.49       5.00392               
   207 r.211                    1001             2               
   208 r.212                   -1001         -1001               
   209 r.213                 2064.41        8.0388               
   210 r.214                    1001             2               
   211 r.215                   -1001         -1001               
   212 r.216                 2018.37       7.79618               
   213 r.217                -966.603        -968.6               
   214 r.218                 40.6974      -981.029               
   215 r.219                -966.603        -968.6               
   216 r.220                 40.6974      -981.029               
   217 r.221                    1001             2               
   218 r.222                   -1001         -1001               
   219 r.223                  2105.9      -899.802               
   220 r.224                    1001             2               
   221 r.225                   -1001         -1001               
   222 r.226                  2098.6      -958.513               
   223 r.227                -894.099        -901.4               
   224 r.228                 105.901      -959.675               
   225 r.229                  -901.4        -901.4               
   226 r.230                 98.6003      -959.675               
   227 r.231                 139.298      -899.802               
   228 r.232                -860.702      -958.513               
   229 r.233                 139.298      -899.802               
   230 r.234                -860.702      -958.513               
   231 r.235                    1001             2               
   232 r.236                   -1001         -1001               
   233 r.237                  1894.1          31.4               
   234 r.238                    1001             2               
   235 r.239                   -1001         -1001               
   236 r.240                  1901.4       18.9711               
   237 r.241                    1001             2               
   238 r.242                   -1001         -1001               
   239 r.243                    2000        -901.4               
   240 r.244                    1001             2               
   241 r.245                   -1001         -1001               
   242 r.246                    2000      -959.675               
   243 r.247                    1001             2               
   244 r.248                   -1001         -1001               
   245 r.249                 1958.51       68.0877               
   246 r.250                    1001             2               
   247 r.251                   -1001         -1001               
   248 r.252                 1958.51       38.7447               
   249 r.253                    1001             2               
   250 r.254                   -1001         -1001               
   251 r.255                 1958.51        8.0388               
   252 r.256                    1001             2               
   253 r.257                   -1001         -1001               
   254 r.258                 1919.77       7.79618               
   255 r.259                    1001             2               
   256 r.260                   -1001         -1001               
   257 r.261                    2000       100.198               
   258 r.262                    1001             2               
   259 r.263                   -1001         -1001               
   260 r.264                    2000       41.4872               

   No. Column name       Activity     Lower bound   Upper bound
------ ------------    ------------- ------------- -------------
     1 tt                    147.922             0               
     2 s_1_1        *              0             0             1 
     3 t_1_1                 98.6003             0               
     4 s_1_8        *              1             0             1 
     5 s_1_7        *              0             0             1 
     6 s_2_1        *              1             0             1 
     7 t_2_1                 98.6003             0               
     8 s_2_8        *              0             0             1 
     9 s_2_7        *              1             0             1 
    10 s_1_2        *              0             0             1 
    11 t_1_2                 41.4872             0               
    12 s_2_2        *              1             0             1 
    13 t_2_2                 41.4872             0               
    14 s_1_3        *              1             0             1 
    15 t_1_3                 98.6003             0               
    16 s_2_3        *              0             0             1 
    17 t_2_3                 98.6003             0               
    18 s_1_4        *              0             0             1 
    19 t_1_4                 41.4872             0               
    20 s_2_4        *              1             0             1 
    21 t_2_4                 80.2319             0               
    22 s_1_5        *              1             0             1 
    23 t_1_5                 105.901             0               
    24 s_2_5        *              0             0             1 
    25 t_2_5                 98.6003             0               
    26 s_1_6        *              0             0             1 
    27 t_1_6                 139.298             0               
    28 s_2_6        *              1             0             1 
    29 t_2_6                 139.298             0               
    30 t_1_7                       0             0               
    31 t_2_7                       0             0               
    32 t_1_8                       0             0               
    33 t_2_8                       0             0               
    34 r_1_1_2      *              1             0             1 
    35 u_1_1_2      *              0             0             1 
    36 r_2_1_2      *              0             0             1 
    37 u_2_1_2      *              1             0             1 
    38 r_1_1_3      *              1             0             1 
    39 u_1_1_3      *              0             0             1 
    40 r_2_1_3      *              1             0             1 
    41 u_2_1_3      *              0             0             1 
    42 r_1_1_4      *              1             0             1 
    43 u_1_1_4      *              0             0             1 
    44 r_2_1_4      *              0             0             1 
    45 u_2_1_4      *              1             0             1 
    46 r_1_1_5      *              1             0             1 
    47 u_1_1_5      *              0             0             1 
    48 r_2_1_5      *              1             0             1 
    49 u_2_1_5      *              0             0             1 
    50 r_1_2_3      *              1             0             1 
    51 u_1_2_3      *              0             0             1 
    52 r_2_2_3      *              1             0             1 
    53 u_2_2_3      *              0             0             1 
    54 r_1_2_4      *              1             0             1 
    55 u_1_2_4      *              0             0             1 
    56 r_2_2_4      *              0             0             1 
    57 u_2_2_4      *              0             0             1 
    58 r_1_2_5      *              1             0             1 
    59 u_1_2_5      *              0             0             1 
    60 r_2_2_5      *              1             0             1 
    61 u_2_2_5      *              0             0             1 
    62 r_1_2_8      *              1             0             1 
    63 u_1_2_8      *              0             0             1 
    64 r_2_2_8      *              1             0             1 
    65 u_2_2_8      *              0             0             1 
    66 r_1_3_4      *              1             0             1 
    67 u_1_3_4      *              0             0             1 
    68 r_2_3_4      *              1             0             1 
    69 u_2_3_4      *              0             0             1 
    70 r_1_3_5      *              0             0             1 
    71 u_1_3_5      *              0             0             1 
    72 r_2_3_5      *              1             0             1 
    73 u_2_3_5      *              0             0             1 
    74 r_1_4_5      *              1             0             1 
    75 u_1_4_5      *              0             0             1 
    76 r_2_4_5      *              1             0             1 
    77 u_2_4_5      *              0             0             1 
    78 r_1_4_8      *              1             0             1 
    79 u_1_4_8      *              0             0             1 
    80 r_2_4_8      *              1             0             1 
    81 u_2_4_8      *              0             0             1 
    82 r_1_5_7      *              1             0             1 
    83 u_1_5_7      *              0             0             1 
    84 r_2_5_7      *              1             0             1 
    85 u_2_5_7      *              0             0             1 
    86 r_1_7_8      *              1             0             1 
    87 u_1_7_8      *              0             0             1 
    88 r_2_7_8      *              1             0             1 
    89 u_2_7_8      *              0             0             1 

Integer feasibility conditions:

KKT.PE: max.abs.err = 4.55e-13 on row 197
        max.rel.err = 1.08e-16 on row 197
        High quality

KKT.PB: max.abs.err = 2.27e-13 on row 66
        max.rel.err = 4.78e-16 on row 203
        High quality

End of output
